container_length = 75;
container_width = 36;
container_height = 21;
n = 8;
boxes = [|3, 3, 2, 31
         |4, 4, 1, 34
         |12,3, 2, 23
         |5, 3, 2, 17
         |15,2, 2, 30
         |5, 5, 2, 17
         |8, 4, 3, 27
         |2, 2, 2, 21|];
